
-6.54
-6.26
-5.88
-5.2
-3.92
-2.76
-2.18
-1.78
-1.58
-1.4
-1.2
-1.12
-1.06
-1.0
-0.98
-0.98
-0.98
-0.98
-0.98
-0.98
-0.98
-0.98
-0.98
-0.98
-0.98
-0.98
-0.98
-0.98
-0.98
-0.98
-0.98
-0.98
-0.98
-0.98